c Result of efficient AIG-to-CNF conversion using package CNF
p cnf 199 786
-2 3 134 0
-2 -3 -134 0
2 -3 134 0
2 3 -134 0
-3 4 38 0
-3 -4 -38 0
3 -4 38 0
3 4 -38 0
-4 -5 -20 0
-4 5 20 0
4 5 -20 0
4 -5 20 0
-5 -6 -11 0
-5 6 11 0
5 6 -11 0
5 -6 11 0
6 -7 -8 0
-6 7 0
-6 8 0
7 -193 -195 0
-7 193 0
-7 195 0
8 -9 -10 0
-8 9 0
-8 10 0
9 -192 -193 0
-9 192 0
-9 193 0
10 -195 -197 0
-10 195 0
-10 197 0
11 -12 -14 0
-11 12 0
-11 14 0
-12 13 0
12 -13 0
13 -7 8 0
-13 7 0
-13 -8 0
14 -15 -16 0
-14 15 0
-14 16 0
-15 -9 -10 0
-15 9 10 0
15 9 -10 0
15 -9 10 0
-16 17 19 0
-16 18 19 0
-16 17 18 0
16 -17 -18 0
16 -18 -19 0
16 -17 -19 0
17 -188 -193 0
-17 188 0
-17 193 0
18 -192 -197 0
-18 192 0
-18 197 0
19 -195 -196 0
-19 195 0
-19 196 0
20 -21 -22 0
-20 21 0
-20 22 0
-21 -12 -14 0
-21 12 14 0
21 12 -14 0
21 -12 14 0
22 -23 -24 0
-22 23 0
-22 24 0
-23 15 16 0
-23 -15 -16 0
23 -15 16 0
23 15 -16 0
-24 25 27 0
-24 27 37 0
-24 25 37 0
24 -25 -37 0
24 -27 -37 0
24 -25 -27 0
-25 -26 -19 0
-25 26 19 0
25 26 -19 0
25 -26 19 0
-26 -17 -18 0
-26 17 18 0
26 17 -18 0
26 -17 18 0
-27 28 35 0
-27 29 30 0
-27 29 35 0
-27 28 30 0
27 -28 -29 0
27 -30 -35 0
28 -190 -193 0
-28 190 0
-28 193 0
29 -189 -190 -193 -197 0
-29 197 0
-29 189 0
-29 193 0
-29 190 0
-30 -31 -34 0
-30 31 34 0
30 31 -34 0
30 -31 34 0
-31 -32 -33 0
-31 32 33 0
31 32 -33 0
31 -32 33 0
32 -188 -197 0
-32 188 0
-32 197 0
33 -192 -196 0
-33 192 0
-33 196 0
34 -195 -198 0
-34 195 0
-34 198 0
-35 36 0
35 -36 0
36 -28 29 0
-36 28 0
-36 -29 0
-37 32 34 0
-37 33 34 0
-37 32 33 0
37 -32 -33 0
37 -33 -34 0
37 -32 -34 0
-38 39 40 0
-38 39 63 108 0
-38 40 63 108 0
38 -39 -108 0
38 -40 -108 0
38 -39 -40 0
38 -40 -63 0
38 -39 -63 0
-39 -21 -22 0
-39 21 22 0
39 21 -22 0
39 -21 22 0
40 -41 -42 0
-40 41 0
-40 42 0
-41 23 24 0
-41 -23 -24 0
41 -23 24 0
41 23 -24 0
42 -43 -45 0
-42 43 0
-42 45 0
-43 37 44 0
-43 -37 -44 0
43 -37 44 0
43 37 -44 0
-44 25 27 0
-44 -25 -27 0
44 -25 27 0
44 25 -27 0
-45 46 47 0
-45 47 62 0
-45 46 62 0
45 -46 -62 0
45 -47 -62 0
45 -46 -47 0
-46 30 35 0
-46 -30 -35 0
46 -30 35 0
46 30 -35 0
-47 48 51 0
-47 51 57 0
-47 48 57 0
47 -48 -57 0
47 -51 -57 0
47 -48 -51 0
-48 -49 -50 0
-48 49 50 0
48 49 -50 0
48 -49 50 0
49 -189 -193 0
-49 189 0
-49 193 0
50 -190 -197 0
-50 190 0
-50 197 0
-51 52 53 0
-51 52 54 0
51 -52 0
51 -53 -54 0
52 -189 -193 -194 -197 0
-52 197 0
-52 189 0
-52 194 0
-52 193 0
53 -190 -196 0
-53 190 0
-53 196 0
-54 -55 -56 0
-54 55 56 0
54 55 -56 0
54 -55 56 0
55 -193 -194 0
-55 193 0
-55 194 0
56 -189 -197 0
-56 189 0
-56 197 0
-57 -58 -61 0
-57 58 61 0
57 58 -61 0
57 -58 61 0
-58 -59 -60 0
-58 59 60 0
58 59 -60 0
58 -59 60 0
59 -188 -196 0
-59 188 0
-59 196 0
60 -192 -198 0
-60 192 0
-60 198 0
61 -187 -195 0
-61 187 0
-61 195 0
-62 59 61 0
-62 60 61 0
-62 59 60 0
62 -59 -60 0
62 -60 -61 0
62 -59 -61 0
-63 65 89 0
-63 64 88 0
-63 64 89 0
-63 64 65 0
-63 65 88 0
63 -64 -65 0
63 -64 -88 -89 0
63 -65 -88 -89 0
-64 -41 -42 0
-64 41 42 0
64 41 -42 0
64 -41 42 0
65 -66 -67 0
-65 66 0
-65 67 0
-66 43 45 0
-66 -43 -45 0
66 -43 45 0
66 43 -45 0
67 -68 -70 0
-67 68 0
-67 70 0
-68 62 69 0
-68 -62 -69 0
68 -62 69 0
68 62 -69 0
-69 46 47 0
-69 -46 -47 0
69 -46 47 0
69 46 -47 0
-70 71 73 0
-70 73 87 0
-70 71 87 0
70 -71 -87 0
70 -73 -87 0
70 -71 -73 0
-71 57 72 0
-71 -57 -72 0
71 -57 72 0
71 57 -72 0
-72 48 51 0
-72 -48 -51 0
72 -48 51 0
72 48 -51 0
-73 75 81 0
-73 74 86 0
-73 74 81 0
-73 75 86 0
73 -81 -86 0
73 -74 -75 0
-74 53 54 0
-74 -53 -54 0
74 -53 54 0
74 53 -54 0
-75 76 77 0
-75 76 78 0
75 -76 0
75 -77 -78 0
76 -189 -194 -196 -197 0
-76 197 0
-76 189 0
-76 196 0
-76 194 0
77 -190 -198 0
-77 190 0
-77 198 0
-78 -79 -80 0
-78 79 80 0
78 79 -80 0
78 -79 80 0
79 -194 -197 0
-79 194 0
-79 197 0
80 -189 -196 0
-80 189 0
-80 196 0
-81 -82 -85 0
-81 82 85 0
81 82 -85 0
81 -82 85 0
-82 -83 -84 0
-82 83 84 0
82 83 -84 0
82 -83 84 0
83 -188 -198 0
-83 188 0
-83 198 0
84 -187 -192 0
-84 187 0
-84 192 0
85 -191 -195 0
-85 191 0
-85 195 0
-86 74 75 0
-86 -74 -75 0
86 -74 75 0
86 74 -75 0
-87 83 85 0
-87 84 85 0
-87 83 84 0
87 -83 -84 0
87 -84 -85 0
87 -83 -85 0
-88 -66 -67 0
-88 66 67 0
88 66 -67 0
88 -66 67 0
89 -90 -91 0
-89 90 0
-89 91 0
-90 68 70 0
-90 -68 -70 0
90 -68 70 0
90 68 -70 0
91 -92 -94 0
-91 92 0
-91 94 0
-92 87 93 0
-92 -87 -93 0
92 -87 93 0
92 87 -93 0
-93 71 73 0
-93 -71 -73 0
93 -71 73 0
93 71 -73 0
-94 95 96 0
-94 96 107 0
-94 95 107 0
94 -96 -107 0
94 -95 -96 0
94 -95 -107 0
-95 81 86 0
-95 -81 -86 0
95 -81 86 0
95 81 -86 0
-96 97 98 0
-96 98 104 0
-96 97 104 0
96 -97 -104 0
96 -98 -104 0
96 -97 -98 0
-97 77 78 0
-97 -77 -78 0
97 -77 78 0
97 77 -78 0
-98 99 100 0
-98 99 101 0
98 -99 0
98 -100 -101 0
99 -189 -194 -196 -198 0
-99 198 0
-99 189 0
-99 196 0
-99 194 0
100 -187 -190 0
-100 187 0
-100 190 0
-101 -102 -103 0
-101 102 103 0
101 102 -103 0
101 -102 103 0
102 -194 -196 0
-102 194 0
-102 196 0
103 -189 -198 0
-103 189 0
-103 198 0
-104 -105 -106 0
-104 105 106 0
104 105 -106 0
104 -105 106 0
105 -187 -188 0
-105 187 0
-105 188 0
106 -191 -192 0
-106 191 0
-106 192 0
107 -105 -106 0
-107 105 0
-107 106 0
108 -109 -88 89 -110 0
108 -109 88 -89 -110 0
-108 110 0
-108 88 89 0
-108 109 0
-108 -88 -89 0
-109 -64 -65 0
-109 64 65 0
109 64 -65 0
109 -64 65 0
-110 112 127 0
-110 111 112 0
-110 111 127 0
110 -111 -112 0
110 -112 -127 0
110 -111 -127 0
-111 -90 -91 0
-111 90 91 0
111 90 -91 0
111 -90 91 0
112 -113 -114 0
-112 113 0
-112 114 0
-113 92 94 0
-113 -92 -94 0
113 -92 94 0
113 92 -94 0
114 -115 -117 0
-114 115 0
-114 117 0
-115 107 116 0
-115 -107 -116 0
115 -107 116 0
115 107 -116 0
-116 95 96 0
-116 -95 -96 0
116 -95 96 0
116 95 -96 0
117 -118 -120 0
-117 118 0
-117 120 0
-118 104 119 0
-118 -104 -119 0
118 -104 119 0
118 104 -119 0
-119 97 98 0
-119 -97 -98 0
119 -97 98 0
119 97 -98 0
-120 121 122 0
-120 122 126 0
-120 121 126 0
120 -122 -126 0
120 -121 -122 0
120 -121 -126 0
-121 100 101 0
-121 -100 -101 0
121 -100 101 0
121 100 -101 0
-122 123 125 0
-122 124 125 0
-122 123 124 0
122 -123 -124 0
122 -124 -125 0
122 -123 -125 0
123 -194 -198 0
-123 194 0
-123 198 0
124 -187 -189 0
-124 187 0
-124 189 0
125 -190 -191 0
-125 190 0
-125 191 0
126 -188 -191 0
-126 188 0
-126 191 0
127 113 -114 -128 0
127 -113 114 -128 0
-127 128 0
-127 113 114 0
-127 -113 -114 0
128 -115 118 -120 -129 0
128 -115 -118 120 -129 0
-128 129 0
-128 118 120 0
-128 115 0
-128 -118 -120 0
129 126 -130 -131 -133 0
129 -126 130 -131 -133 0
-129 131 0
-129 126 130 0
-129 133 0
-129 -126 -130 0
-130 121 122 0
-130 -121 -122 0
130 -121 122 0
130 121 -122 0
-131 125 132 0
-131 -125 -132 0
131 -125 132 0
131 125 -132 0
-132 -123 -124 0
-132 123 124 0
132 123 -124 0
132 -123 124 0
133 -187 -189 -191 -194 0
-133 194 0
-133 187 0
-133 191 0
-133 189 0
-134 7 135 0
-134 135 137 0
-134 7 137 0
134 -135 -137 0
134 -7 -135 0
134 -7 -137 0
-135 10 136 0
-135 9 10 0
-135 9 136 0
135 -9 -10 0
135 -10 -136 0
135 -9 -136 0
-136 17 19 0
-136 18 19 0
-136 17 18 0
136 -17 -18 0
136 -18 -19 0
136 -17 -19 0
-137 138 139 0
-137 139 145 0
-137 138 145 0
137 -138 -145 0
137 -139 -145 0
137 -138 -139 0
-138 15 136 0
-138 -15 -136 0
138 -15 136 0
138 15 -136 0
-139 140 141 0
-139 141 143 0
-139 140 143 0
139 -140 -143 0
139 -141 -143 0
139 -140 -141 0
-140 28 34 0
-140 32 34 0
-140 28 32 0
140 -28 -32 0
140 -32 -34 0
140 -28 -34 0
-141 18 142 0
-141 -18 -142 0
141 -18 142 0
141 18 -142 0
-142 -17 -19 0
-142 17 19 0
142 17 -19 0
142 -17 19 0
-143 33 144 0
-143 29 33 0
-143 29 144 0
143 -29 -33 0
143 -33 -144 0
143 -29 -144 0
-144 196 61 0
-144 188 60 0
-144 60 61 0
-144 196 60 0
-144 188 61 0
144 -60 -61 0
144 -188 -196 -61 0
144 -188 -196 -60 0
-145 146 148 0
-145 148 155 0
-145 146 155 0
145 -146 -155 0
145 -148 -155 0
145 -146 -148 0
-146 143 147 0
-146 -143 -147 0
146 -143 147 0
146 143 -147 0
-147 140 141 0
-147 -140 -141 0
147 -140 141 0
147 140 -141 0
-148 149 151 0
-148 151 153 0
-148 149 153 0
148 -149 -153 0
148 -151 -153 0
148 -149 -151 0
-149 32 150 0
-149 -32 -150 0
149 -32 150 0
149 32 -150 0
-150 -28 -34 0
-150 28 34 0
150 28 -34 0
150 -28 34 0
-151 48 152 0
-151 48 52 0
-151 52 152 0
151 -52 -152 0
151 -48 -152 0
151 -48 -52 0
-152 53 85 0
-152 83 85 0
-152 53 83 0
152 -53 -83 0
152 -83 -85 0
152 -53 -85 0
-153 144 154 0
-153 -144 -154 0
153 -144 154 0
153 144 -154 0
-154 -29 -33 0
-154 29 33 0
154 29 -33 0
154 -29 33 0
-155 156 160 0
-155 160 162 0
-155 156 162 0
155 -156 -162 0
155 -160 -162 0
155 -156 -160 0
-156 57 157 0
-156 157 158 0
-156 57 158 0
156 -57 -158 0
156 -157 -158 0
156 -57 -157 0
-157 76 84 0
-157 54 76 0
-157 54 84 0
157 -54 -76 0
157 -76 -84 0
157 -54 -84 0
-158 152 159 0
-158 -152 -159 0
158 -152 159 0
158 152 -159 0
-159 -48 -52 0
-159 48 52 0
159 48 -52 0
159 -48 52 0
-160 153 161 0
-160 -153 -161 0
160 -153 161 0
160 153 -161 0
-161 149 151 0
-161 -149 -151 0
161 -149 151 0
161 149 -151 0
-162 163 169 0
-162 169 171 0
-162 163 171 0
162 -163 -171 0
162 -169 -171 0
162 -163 -169 0
-163 164 165 0
-163 165 167 0
-163 164 167 0
163 -164 -167 0
163 -165 -167 0
163 -164 -165 0
-164 77 106 0
-164 105 106 0
-164 77 105 0
164 -77 -105 0
164 -105 -106 0
164 -77 -106 0
-165 83 166 0
-165 -83 -166 0
165 -83 166 0
165 83 -166 0
-166 -53 -85 0
-166 53 85 0
166 53 -85 0
166 -53 85 0
-167 54 168 0
-167 -54 -168 0
167 -54 168 0
167 54 -168 0
-168 -76 -84 0
-168 76 84 0
168 76 -84 0
168 -76 84 0
-169 158 170 0
-169 -158 -170 0
169 -158 170 0
169 158 -170 0
-170 57 157 0
-170 -57 -157 0
170 -57 157 0
170 57 -157 0
-171 172 175 0
-171 175 177 0
-171 172 177 0
171 -172 -177 0
171 -175 -177 0
171 -172 -175 0
-172 78 173 0
-172 78 99 0
-172 99 173 0
172 -99 -173 0
172 -78 -173 0
172 -78 -99 0
-173 105 174 0
-173 -105 -174 0
173 -105 174 0
173 105 -174 0
-174 -77 -106 0
-174 77 106 0
174 77 -106 0
174 -77 106 0
-175 167 176 0
-175 -167 -176 0
175 -167 176 0
175 167 -176 0
-176 164 165 0
-176 -164 -165 0
176 -164 165 0
176 164 -165 0
-177 178 180 0
-177 180 182 0
-177 178 182 0
177 -178 -182 0
177 -180 -182 0
177 -178 -180 0
-178 100 179 0
-178 126 179 0
-178 100 126 0
178 -100 -126 0
178 -126 -179 0
178 -100 -179 0
179 -124 -125 0
-179 124 0
-179 125 0
-180 173 181 0
-180 -173 -181 0
180 -173 181 0
180 173 -181 0
-181 -78 -99 0
-181 78 99 0
181 78 -99 0
181 -78 99 0
-182 101 183 0
-182 183 185 0
-182 101 185 0
182 -101 -185 0
182 -183 -185 0
182 -101 -183 0
-183 179 184 0
-183 -179 -184 0
183 -179 184 0
183 179 -184 0
-184 -100 -126 0
-184 100 126 0
184 100 -126 0
184 -100 126 0
-185 133 186 0
-185 123 133 0
-185 123 186 0
185 -123 -133 0
185 -133 -186 0
185 -123 -186 0
-186 -124 -125 0
-186 124 125 0
186 124 -125 0
186 -124 125 0
-199 0
2 0

